Route #1: 1 29 33 22 12 23 17 27 1
Route #2: 1 7 20 10 32 38 3 14 36 1
Route #3: 1 25 30 13 35 18 37 9 6 28 1
Route #4: 1 2 11 16 21 15 1
Route #5: 1 31 34 19 24 5 4 1
Route #6: 1 26 8 1
cost 895.1143171677536